p cnf 356
-5 -17
-6 -23
-7 1
-8 -29
-9 2
-10 3
-11 4
-12 1
-12 -2
-1 2 12
-13 -1
-13 2
1 -2 13
-14 -12
-14 -13
12 13 14
-15 -4
-15 -14
4 14 15
-16 4
-16 14
-4 -14 16
-17 -15
-17 -16
15 16 17
-18 1
-18 -3
-1 3 18
-19 -1
-19 3
1 -3 19
-20 -18
-20 -19
18 19 20
-21 -4
-21 -20
4 20 21
-22 4
-22 20
-4 -20 22
-23 -21
-23 -22
21 22 23
-24 2
-24 -3
-2 3 24
-25 -2
-25 3
2 -3 25
-26 -24
-26 -25
24 25 26
-27 -4
-27 -26
4 26 27
-28 4
-28 26
-4 -26 28
-29 -27
-29 -28
27 28 29
-30 -5
-30 -17
5 17 30
-31 5
-31 17
-5 -17 31
-32 -30
-32 -31
30 31 32
-33 -6
-33 -23
6 23 33
-34 6
-34 23
-6 -23 34
-35 -33
-35 -34
33 34 35
-36 1
-36 -7
-1 7 36
-37 -1
-37 7
1 -7 37
-38 -36
-38 -37
36 37 38
-39 -8
-39 -29
8 29 39
-40 8
-40 29
-8 -29 40
-41 -39
-41 -40
39 40 41
-42 2
-42 -9
-2 9 42
-43 -2
-43 9
2 -9 43
-44 -42
-44 -43
42 43 44
-45 3
-45 -10
-3 10 45
-46 -3
-46 10
3 -10 46
-47 -45
-47 -46
45 46 47
-48 4
-48 -11
-4 11 48
-49 -4
-49 11
4 -11 49
-50 -48
-50 -49
48 49 50
-51 -32
-51 35
32 -35 51
-52 32
-52 -35
-32 35 52
-53 -51
-53 -52
51 52 53
-54 -32
-54 -35
32 35 54
-55 38
-55 -53
-38 53 55
-56 -38
-56 53
38 -53 56
-57 -55
-57 -56
55 56 57
-58 -38
-58 -53
38 53 58
-59 54
-59 -58
-54 58 59
-60 -54
-60 58
54 -58 60
-61 -59
-61 -60
59 60 61
-62 54
-62 58
-54 -58 62
-63 41
-63 -57
-41 57 63
-64 -41
-64 57
41 -57 64
-65 -63
-65 -64
63 64 65
-66 -41
-66 -57
41 57 66
-67 -62
-67 -65
62 65 67
-68 62
-68 65
-62 -65 68
-69 -67
-69 -68
67 68 69
-70 62
-70 -65
-62 65 70
-71 -66
-71 -70
66 70 71
-72 -61
-72 71
61 -71 72
-73 61
-73 -71
-61 71 73
-74 -72
-74 -73
72 73 74
-75 -61
-75 -71
61 71 75
-76 44
-76 -69
-44 69 76
-77 -44
-77 69
44 -69 77
-78 -76
-78 -77
76 77 78
-79 -44
-79 -69
44 69 79
-80 -74
-80 -79
74 79 80
-81 74
-81 79
-74 -79 81
-82 -80
-82 -81
80 81 82
-83 -74
-83 79
74 -79 83
-84 75
-84 -83
-75 83 84
-85 -75
-85 83
75 -83 85
-86 -84
-86 -85
84 85 86
-87 75
-87 83
-75 -83 87
-88 47
-88 -78
-47 78 88
-89 -47
-89 78
47 -78 89
-90 -88
-90 -89
88 89 90
-91 -47
-91 -78
47 78 91
-92 -87
-92 -90
87 90 92
-93 87
-93 90
-87 -90 93
-94 -92
-94 -93
92 93 94
-95 87
-95 -90
-87 90 95
-96 -91
-96 -95
91 95 96
-97 -82
-97 96
82 -96 97
-98 82
-98 -96
-82 96 98
-99 -97
-99 -98
97 98 99
-100 -82
-100 -96
82 96 100
-101 -86
-101 -100
86 100 101
-102 86
-102 100
-86 -100 102
-103 -101
-103 -102
101 102 103
-104 -86
-104 100
86 -100 104
-105 50
-105 -94
-50 94 105
-106 -50
-106 94
50 -94 106
-107 -105
-107 -106
105 106 107
-108 -50
-108 -94
50 94 108
-109 -104
-109 -107
104 107 109
-110 104
-110 107
-104 -107 110
-111 -109
-111 -110
109 110 111
-112 104
-112 -107
-104 107 112
-113 -108
-113 -112
108 112 113
-114 -99
-114 113
99 -113 114
-115 99
-115 -113
-99 113 115
-116 -114
-116 -115
114 115 116
-117 -99
-117 -113
99 113 117
-118 -103
-118 -117
103 117 118
-119 103
-119 117
-103 -117 119
-120 -118
-120 -119
118 119 120
-121 -103
-121 117
103 -117 121
-122 -111
-122 -116
111 116 122
-123 120
-123 -122
-120 122 123
-124 38
-124 44
-38 -44 124
-125 47
-125 50
-47 -50 125
-126 124
-126 125
-124 -125 126
-127 123
-127 -126
-123 126 127
127
